2298055894100501970508,9,1,2,014,4,1,2,011,6,1,2,013,3,1,2,01,6,1,2,02,9,1,2,09,4,1,2,01,8,1,2,01,14,1,2,06,15,1,2,02,3,1,2,08,10,1,2,02,12,1,2,010,12,1,2,07,2,1,2,02,9,1,2,015,5,1,2,013,5,1,2,015,6,1,2,013,7,1,2,015,8,1,2,01,14,1,2,012,8,1,2,07,2,1,2,04,11,1,2,012,14,1,2,07,5,1,2,03,14,1,2,08,9,1,2,06,1,1,2,014,6,1,2,09,4,1,2,09,3,1,2,015,14,1,2,09,1,1,2,07,1,1,2,07,1,1,2,04,10,1,2,01,1,1,2,010,7,1,2,09,8,1,2,011,8,1,2,07,11,1,2,06,12,1,2,09,7,1,2,06,7,1,2,05,9,1,2,02,3,1,2,010,6,1,2,05,1,1,2,0